45

 0   0   0   0   0   0   0   0   0   0   3   0   0   0   0   0   0   0   0   0   0   8  27  27  27  27  27  27  27  27  29  29  29  29  29   8  29  29   9  19   8   5  17   5  11  
 0   0   0   0   0   0   1   0   0   0   0   0   0   0   0   0   0   0   0   0   0   0  27  27  27  27  27  27  27  27   2  29  29  29  29  29  29  29   9   7  20   2   4  14   5  
 0   0   0   0   0   0   5   0   0   0   0   0   0   0   0   0   0   0   0   0   0   0  27  27  27  27  27  27  27  27  29  29  29  29  29  29  29  29  11  15  18  14   6  17   5  
 0   0   0   0   0   0   0   0   1   0   0   0   0   0   0   1   0   0   0   0   0   0  27  27  27  27  27  27  27  27  29  29  29  29  29  29  29  29   3   2  10  11   4   1   6  
 0   0   0   0   0   0   0   0   0   0   0   0   0   0   7   0   0   0   0   0   0   3  27  27   6  27  27  27  27   6  29  29  29  29  29  29  29  29   8  17  11  19   4   1   4  
 0   0   0   0   0   0   0   0   0   0   0   0   0   0   0   3   0   0   0   0   0   1  27  27  27  27  27  27  27  27  29   9  29  29  29  29  29  29   6   7  18   9   5  16  17  
 0   1   5   0   0   0   0   0   0   0   0   0   0   0   0   0   0   0   0   0   0   0  27  27  27  27  27  27  27  27  29  29  29  29  29  29  29   6   1   9  17  14   9   9   2  
 0   0   0   0   0   0   0   0   0   0   0   0   0   0   0   0   1   0   0   0   0   0  27  27  27  27  27  27  27  27  29  29  29  29  29  29  29  29  16   6  18  11   1   9   8  
 0   0   0   1   0   0   0   0   0   0   0   0   0   0   0   0   0   0   0   0   0   0  30  30  30  30  30  30  30  30  14  19   5   8   1  20  15   9  28  28  28  28  28  28  28  
 0   0   0   0   0   0   0   0   0   0   0   0   0   0   0   0   0   0   0   0   0   0  30  30  30  30  30  30  30  30   7   2   2  17   3   9  16  19  28  28  28  28  28  28   6  
 3   0   0   0   0   0   0   0   0   0   0   0   0   0   0   0   0   0   0   0   0   0  30  30  30  30  30  30  30  30   1  12  20   7   6  17   8  20  28  28  28  28  28  28  28  
 0   0   0   0   0   0   0   0   0   0   0   0   7   0   0   0   6   0   0   0   0   0  30  30  30  30  30  30  30  30  15   6  16  17   8  10   5  13  28  28  28  28  28   2  28  
 0   0   0   0   0   0   0   0   0   0   0   7   0   0   0   0   0   0   0   0   2   0  30  30  30  30  30  30  30  30   5  15  20   8   7   3  19   2  28  28  28  28  28  28   4  
 0   0   0   0   0   0   0   0   0   0   0   0   0   0   0   0   0   0   0   7   0   0  30  30  30  30  30  30  30  30  11   5  15   7  16   2  12  20  28  28  28  28  28  28  28  
 0   0   0   0   7   0   0   0   0   0   0   0   0   0   0   0   0   0   0   0   0   0  30  30  30   7  30  30  30  30  11   8   2  10  15  12  11  19  28  28  28  28  28  28  28  
 0   0   0   1   0   3   0   0   0   0   0   0   0   0   0   0   0   0   0   0   0   8  17  19  14   9   6   1   6   9  31  31  31  31  31  31  31  31  31   6   3  31   4  31  31  
 0   0   0   0   0   0   0   1   0   0   0   6   0   0   0   0   0   0   0   0   0   0   4   1   8   7   8  19   5  12   3  31  31  31  31  31  31  31  31  31  31  31  31  31  31  
 0   0   0   0   0   0   0   0   0   0   0   0   0   0   0   0   0   0   0   5   0   0  10  15  15  19  12   5  15  12  31  31  31  31  31  31  31  31  31   5  31  31  31  31  31  
 0   0   0   0   0   0   0   0   0   0   0   0   0   0   0   0   0   0   0   0   0   0   3  20   6  13  13  10  13   8   7  31  31  31  31   6  31  31  31  31  31  31  31  31  31  
 0   0   0   0   0   0   0   0   0   0   0   0   0   7   0   0   0   5   0   0   0   0  12  11  20   4  20  17   9  11  31  31  31  31  31  31   3  31   5  31  31  31   3  31  31  
 0   0   0   0   0   0   0   0   0   0   0   0   2   0   0   0   0   0   0   0   0   0  12  15  20   4  19   9  11   5  31  31  31  31  31  31  31  31  31  31  31   9  31  31  31  
 8   0   0   0   3   1   0   0   0   0   0   0   0   0   0   8   0   0   0   0   0   0   3   3   4   4  18  19   4  14  31  31   2  31  31  31  31  31  31  31  31  31   9  31  31  
27  27  27  27  27  27  27  27  30  30  30  30  30  30  30   3   4  11   3  20   7  14   0   0   0   0   0   0   0   0   0   0   0   0   0   0   0   0   0   0   0   0   0   0   0  
27  27  27  27  27  27  27  27  30  30  30  30  30  30  30  16  12   5   6   9  17  13   0   0   0   0   0   0   0   0   0   0   0   0   0   0   0   0   0   0   0   0   0   0   0  
27  27  27  27   6  27  27  27  30  30  30  30  30  30  30  19  17   2  10  11  15  19   0   0   0   0   0   0   0   0   0   0   0   0   0   0   0   0   0   0   0   0   0   0   0  
27  27  27  27  27  27  27  27  30  30  30  30  30  30   7   9  14   1  16  18  17   4   0   0   0   0   0   0   0   0   0   0   0   0   0   0   0   0   0   0   0   0   0   0   0  
27  27  27  27  27  27  27  27  30  30  30  30  30  30  30   4  14   8   4  12  15   5   0   0   0   0   0   0   0   0   0   0   0   0   0   8   0   0   0   0   0   0   0   0   0  
27  27  27  27  27  27  27  27  30  30  30  30  30  30  30  19  15   1  18   3   5  16   0   0   0   0   0   0   0   0   0   0   0   0   0   0   0   0   0   0   0   0   0   0   0  
27  27  27  27  27  27  27  27  30  30  30  30  30  30  30   9  19  17   3  19  11   7   0   0   0   0   0   0   0   0   0   0   0   0   0   0   0   0   0   0   0   7   0   0   0  
27  27  27  27   6  27  27  27  30  30  30  30  30  30  30  14   4  20   3   5   5   5   0   0   0   0   0   0   0   0   0   0   0   0   0   0   0   0   0   0   0   0   0   0   0  
29   2  29  29  29  29  29  29   7   7  15  12  15  20  18  31   3  31   7  31  31  31   0   0   0   0   0   0   0   0   0   0   0   0   0   0   0   0   0   8   0   0   0   0   0  
29  29  29  29  29   9  29  29   3   3  10   1   6   2   9  31  31  31  31  31  31  31   0   0   0   0   0   0   0   0   0   0   0   6   0   0   0   0   0   0   0   0   0   0   0  
29  29  29  29  29  29  29  29  11   7  17  18   1  18   6  31  31  31  31  31  31   2   0   0   0   0   0   0   0   0   0   0   0   0   0   0   0   0   0   0   6   0   0   0   0  
29  29  29  29  29  29  29  29   6   1   3  17   4   8  13  31  31  31  31  31  31  31   0   0   0   0   0   0   0   0   0   6   0   0   0   0   0   0   0   0   0   0   0   0   0  
29  29  29  29  29  29  29  29  16   3  16  11   7   5   2  31  31  31  31  31  31  31   0   0   0   0   0   0   0   0   0   0   0   0   0   0   6   0   0   0   3   0   0   0   0  
 8  29  29  29  29  29  29  29   4  16  14   6   3   1   9  31  31  31   6  31  31  31   0   0   0   0   8   0   0   0   0   0   0   0   0   0   0   0   0   0   4   0   0   0   0  
29  29  29  29  29  29  29  29  19   2   7  17  15   3   7  31  31  31  31   3  31  31   0   0   0   0   0   0   0   0   0   0   0   0   6   0   0   0   0   0   0   0   0   0   0  
29  29  29  29  29  29   6  29   1  11  12  20   2  19  17  31  31  31  31  31  31  31   0   0   0   0   0   0   0   0   0   0   0   0   0   0   0   0   5   0   0   0   0   0   0  
 9  19  20  20  10  14   6   3  28  28  28  28  28  28  28  31  31  31  31   5  31  31   0   0   0   0   0   0   0   0   0   0   0   0   0   0   0   5   0   0   0   0   0   0   0  
19   7   6  15   8   4  15   6  28  28  28  28  28  28  28   6  31   5  31  31  31  31   0   0   0   0   0   0   0   0   8   0   0   0   0   0   0   0   0   0   0   0   0   0   2  
 5  14   2   6   3   9   6  11  28  28  28  28  28  28  28   3  31  31  31  31  31  31   0   0   0   0   0   0   0   0   0   0   6   0   3   4   0   0   0   0   0   0   0   0   0  
18   2   1   1  14  19  18  18  28  28  28  28  28  28  28  31  31  31  31  31   9  31   0   0   0   0   0   0   7   0   0   0   0   0   0   0   0   0   0   0   0   0   4   0   0  
20  12  10   9  12   5   3   1  28  28  28  28  28  28  28   4  31  31  31   3  31   9   0   0   0   0   0   0   0   0   0   0   0   0   0   0   0   0   0   0   0   4   0   9   0  
14   9   3   1   1  10  18   9  28  28  28   2  28  28  28  31  31  31  31  31  31  31   0   0   0   0   0   0   0   0   0   0   0   0   0   0   0   0   0   0   0   0   9   0   0  
16   8  16   7  16   6  20  11  28   6  28  28   4  28  28  31  31  31  31  31  31  31   0   0   0   0   0   0   0   0   0   0   0   0   0   0   0   0   0   2   0   0   0   0   0  

 0  15   8  18  16  18   4  15  25  25  25  25  25  25   4  29  29  29  29  29  29  29   0   0   0   0   0   0   0   0   0   0   0   0   0   0   0   0   0   0   0   0   0   0   0  
 1   0   1  13  20  16   8  18  25  25  25  25  25  25  25  29  29  29  29  29  29  29   0   0   0   0   0   0   0   0   0   0   0   0   0   0   0   0   0   0   0   0   0   0   0  
19  15   0   8  20  10  17   7  25  25  25  25  25  25  25  29  29  29  29  29  29   4   0   0   0   0   0   0   0   0   0   0   0   0   0   0   0   0   0   0   0   0   0   0   0  
 5  10   8   0   1   5  19   2   8  25  25  25  25  25  25  29  29  29  29  29  29  29   0   8   0   0   0   0   0   0   0   0   0   0   0   0   0   0   0   0   0   0   0   0   0  
 4  19  13   6   0   3  14   9  25  25  25  25  25  25  25  29  29  29  29  29  29  29   0   0   0   0   0   0   0   0   0   0   0   0   0   0   0   0   0   0   0   0   0   0   0  
 9   9  12   4   3   0  19   9  25  25  25  25  25  25  25  29  29  29  29  29   3  29   0   0   0   0   5   0   0   0   0   0   0   0   0   0   0   0   0   0   0   0   0   0   0  
17  11   1  16   6  19   0  20  25  25  25  25  25  25  25  29   6  29  29  29  29  29   0   0   7   0   0   0   0   0   0   0   0   0   0   0   0   0   9   0   0   0   0   0   0  
15  14  14  17   9  12  14   0  25  25  25   4  25  25  25  29  29  29  29  29  29  29   0   0   0   0   0   6   0   0   0   0   0   0   5   5   0   0   0   0   0   0   0   0   0  
25  25  25   8  25  25  25  25   0  13  18   8   2  18   9  28  28  28  28  28  28  28   0   0   0   0   0   0   0   0   0   0   0   0   0   0   0   0   0   0   0   0   0   2   0  
25  25  25  25  25  25  25  25   9   0   2  14  11  11  20  28   1  28  28  28  28  28   0   0   0   0   0   0   0   0   0   0   0   0   0   0   0   0   0   0   0   0   0   0   0  
25  25  25  25  25  25  25  25  10   3   0   8   9   2  12  28  28  28  28  28  28  28   0   8   0   0   0   3   0   0   0   0   0   0   0   0   0   0   0   0   0   0   0   0   0  
25  25  25  25  25  25  25   4  16  16  15   0   2   1   5  28  28  28  28  28  28  28   0   0   0   0   0   0   0   0   0   0   0   0   0   0   0   0   0   0   0   0   0   0   0  
25  25  25  25  25  25  25  25   7   9  15  14   0  18  16  28  28  28  28  28  28  28   0   0   0   9   0   0   0   0   0   0   0   0   0   0   0   0   0   0   0   0   0   0   8  
25  25  25  25  25  25  25  25  18  15  16   4   5   0   8  28  28  28   8  28  28  28   0   0   0   0   0   0   0   0   0   0   0   0   1   0   0   0   0   0   0   0   0   0   0  
 4  25  25  25  25  25  25  25   6  15   7  11   1   6   0  28  28  28  28  28  28  28   0   0   0   0   0   0   0   0   0   0   0   0   0   0   0   0   0   0   0   0   0   2   0  
29  29  29  29  29  29  29  29  28  28  28  28  28  28  28   0   8  11  18  17   7   9   0   0   0   0   9   0   0   0   0   0   0   0   0   0   0   0   0   0   0   0   0   0   0  
29  29  29  29  29  29   6  29  28   1  28  28  28  28  28   8   0  11  14  10  13   7   0   0   0   0   0   0   0   0   0   0   0   0   0   0   0   0   0   1   0   0   0   0   0  
29  29  29  29  29  29  29  29  28  28  28  28  28  28  28   2  18   0  18   8   5   2   0   0   0   0   0   0   0   9   0   0   0   3   0   0   0   0   0   0   3   0   0   0   0  
29  29  29  29  29  29  29  29  28  28  28  28  28   8  28   7   2  16   0  16  16   5   9   0   0   0   0   0   0   0   0   0   0   0   0   0   0   0   0   0   0   0   0   0   0  
29  29  29  29  29  29  29  29  28  28  28  28  28  28  28   2  13   5  10   0  13  13   0   3   0   0   0   0   0   0   0   0   0   0   0   0   0   0   0   0   0   0   0   0   0  
29  29  29  29  29   3  29  29  28  28  28  28  28  28  28   6   4  18   1   3   0   8   8   0   0   0   0   0   0   0   0   0   0   5   0   0   0   0   0   0   0   0   6   0   6  
29  29   4  29  29  29  29  29  28  28  28  28  28  28  28  10  20  13  15  10  17   0   0   0   4   5   0   0   0   0   0   0   0   0   0   2   0   0   0   0   0   0   0   0   0  
 0   0   0   0   0   0   0   0   0   0   0   0   0   0   0   0   0   0   9   0   8   0   6   3   4   9  11   2   1   1  29  29  29  29  29  29  29  29  28  28  28  28  28   7   1  
 0   0   0   8   0   0   0   0   0   0   8   0   0   0   0   0   0   0   0   3   0   0   3  20   6  13   3  15   5  19  29  29  29  29  29  29  29  29   1  28  28  28  28  28  28  
 0   0   0   0   0   0   7   0   0   0   0   0   0   0   0   0   0   0   0   0   0   4  15   6   7  15   4  16  13  18  29  29  29  29  29  29  29  29  28  28  28   8  28  28  28  
 0   0   0   0   0   0   0   0   0   0   0   0   9   0   0   0   0   0   0   0   0   5  14   3   2   1  16   7   8  20  29  29  29  29  29  29  29  29  28  28  28  28  28   8   7  
 0   0   0   0   0   5   0   0   0   0   0   0   0   0   0   9   0   0   0   0   0   0  15  14   5   5   2  10   9   6  29  29  29  29  29  29  29  29   9  28  28  28  28  28  28  
 0   0   0   0   0   0   0   6   0   0   3   0   0   0   0   0   0   0   0   0   0   0  14   9  17  14  14   6  14  12  29  29  29   6  29  29  29  29  28  28  28  28  28  28  28  
 0   0   0   0   0   0   0   0   0   0   0   0   0   0   0   0   0   0   0   0   0   0  11  19  17  19  11  19   5  13  29  29   4  29  29  29  29  29  28  28  28  28   4  28  28  
 0   0   0   0   0   0   0   0   0   0   0   0   0   0   0   0   0   9   0   0   0   0   1   5   5   6   6   1  16  17  29   3  29  29  29  29  29  29  28  28  28  28  28  28  28  
 0   0   0   0   0   0   0   0   0   0   0   0   0   0   0   0   0   0   0   0   0   0  29  29  29  29  29  29  29  29  19  12  12   1   9  13   4  15  28  28  28  28  28  28  28  
 0   0   0   0   0   0   0   0   0   0   0   0   0   0   0   0   0   0   0   0   0   0  29  29  29  29  29  29  29   3   5  15  16  11  11  20  12   3  28  28  28   6  28  28  28  
 0   0   0   0   0   0   0   0   0   0   0   0   0   0   0   0   0   0   0   0   0   0  29  29  29  29  29  29   4  29  13  17  20   7  17  15   6  12  28  28  28  28  28  28  28  
 0   0   0   0   0   0   0   0   0   0   0   0   0   0   0   0   0   3   0   0   5   0  29  29  29  29  29   6  29  29   2  17   7   8  19  18  12   4  28  28  28  28  28  28  28  
 0   0   0   0   0   0   0   5   0   0   0   0   0   1   0   0   0   0   0   0   0   0  29  29  29  29  29  29  29  29   9  16  10  18  12  17  15  20  28  28  28  28   2   2  28  
 0   0   0   0   0   0   0   5   0   0   0   0   0   0   0   0   0   0   0   0   0   2  29  29  29  29  29  29  29  29   6   1  11  13   8  16   6   7  28  28  28  28  28  28  28  
 0   0   0   0   0   0   0   0   0   0   0   0   0   0   0   0   0   0   0   0   0   0  29  29  29  29  29  29  29  29   3   5   9   7   3  17  16  13  28  28  28  28  28  28  28  
 0   0   0   0   0   0   0   0   0   0   0   0   0   0   0   0   0   0   0   0   0   0  29  29  29  29  29  29  29  29  20   3  15  13  13   8  17  10  28  28  28  28  28  28  28  
 0   0   0   0   0   0   9   0   0   0   0   0   0   0   0   0   0   0   0   0   0   0  28   1  28  28   9  28  28  28  28  28  28  28  28  28  28  28  16  17  20  12  17  18  12  
 0   0   0   0   0   0   0   0   0   0   0   0   0   0   0   0   1   0   0   0   0   0  28  28  28  28  28  28  28  28  28  28  28  28  28  28  28  28   2   9  13   7   4  18   6  
 0   0   0   0   0   0   0   0   0   0   0   0   0   0   0   0   0   3   0   0   0   0  28  28  28  28  28  28  28  28  28  28  28  28  28  28  28  28  19   8  14   5   6   1   6  
 0   0   0   0   0   0   0   0   0   0   0   0   0   0   0   0   0   0   0   0   0   0  28  28   8  28  28  28  28  28  28   6  28  28  28  28  28  28   9   7   8  11  13  13  20  
 0   0   0   0   0   0   0   0   0   0   0   0   0   0   0   0   0   0   0   0   6   0  28  28  28  28  28  28   4  28  28  28  28  28   2  28  28  28  20   3  13  16  18   5   4  
 0   0   0   0   0   0   0   0   2   0   0   0   0   0   2   0   0   0   0   0   0   0   7  28  28   8  28  28  28  28  28  28  28  28   2  28  28  28  19  20   1   2   8   5  17  
 0   0   0   0   0   0   0   0   0   0   0   0   8   0   0   0   0   0   0   0   6   0   1  28  28   7  28  28  28  28  28  28  28  28  28  28  28  28  12  13  17  16  20   1  20  
